Route #1:
Route #2: 8 22 5 10 18 6
Route #3: 14 27
Route #4: 25 20
Route #5: 16 1 4 11 23 13 21
Route #6: 24 28 15
Route #7: 17 19 31
Route #8: 30 26 12 7
Route #9: 29 9 2 3

Cost: 1556.0103288673636
